0a1,6
> (set-option :split-num 2)
> (set-option :lookahead-split)
> (set-option :lookahead-score-deep)
> (set-option :output-dir "splits_here")
> (set-option :split-format-length "brief")
> (set-option :split-format smt2)
